g3 0 1 0	# problem d4n12R3R7d005d05
 12 9 1 0 3	# vars, constraints, objectives, ranges, eqns
 4 1	# nonlinear constraints, objectives
 0 0	# network constraints: nonlinear, linear
 12 12 12	# nonlinear vars in constraints, objectives, both
 0 0 0 1	# linear network variables; functions; arith, flags
 0 0 0 0 0	# discrete variables: binary, integer, nonlinear (b,c,o)
 90 12	# nonzeros in Jacobian, gradients
 0 0	# max name lengths: constraints, variables
 0 0 0 0 0	# common exprs: b,c,o,c1,o1
b
0 0.14 2.78
0 0.27 2.68
0 0.88 2.07
0 0.62 2.61
0 0.2 2.63
0 0.8 2.17
0 0.2 2.78
0 0.54 2.64
0 0.15 2.75
0 0.39 2.07
0 0.17 2.89
0 0.73 2.48
r
2 126.538
2 351.206
2 1771.28
2 75.354
4 26.349
4 57.131
4 41.411
2 20.718
2 73.975
C0
o54
4
o2
o2
n0.61
v0
v6
o2
o2
n3.17
v1
v2
o2
o2
n3.36
v2
v11
o2
o2
n7.3
v5
v9
C1
o54
23
o2
o2
n8.06
v0
v6
o16
o2
o2
n8.01
v1
v2
o2
o2
n7.3
v2
v11
o2
o2
n1.81
v5
v9
o16
o2
o2
o2
n4.09
v0
v0
v1
o2
o2
o2
n8.7
v0
v1
v2
o2
o2
o2
n1.31
v0
v1
v5
o2
o2
o2
n8.86
v0
v1
v8
o2
o2
o2
n8.81
v0
v1
v11
o2
o2
o2
n6.57
v0
v3
v9
o2
o2
o2
n6.4
v0
v4
v6
o2
o2
o2
n9.88
v0
v6
v10
o2
o2
o2
n2.64
v1
v1
v6
o2
o2
o2
n1.64
v1
v2
v3
o2
o2
o2
n7.04
v1
v3
v6
o2
o2
o2
n2.4
v1
v6
v10
o2
o2
o2
n8.72
v2
v5
v5
o16
o2
o2
o2
n0.49
v3
v3
v4
o2
o2
o2
n9.15
v3
v3
v7
o2
o2
o2
n9.43
v3
v5
v5
o2
o2
o2
n1.94
v3
v7
v11
o16
o2
o2
o2
n8.19
v4
v8
v8
o2
o2
o2
n7.32
v8
v8
v9
C2
o54
90
o2
o2
n1.36
v0
v6
o2
o2
n0.78
v1
v2
o2
o2
n6.73
v2
v11
o2
o2
n5.21
v5
v9
o2
o2
o2
n0.25
v0
v0
v1
o2
o2
o2
n9.76
v0
v1
v2
o2
o2
o2
n2.05
v0
v1
v5
o2
o2
o2
n9.12
v0
v1
v8
o2
o2
o2
n6.3
v0
v1
v11
o16
o2
o2
o2
n9.66
v0
v3
v9
o2
o2
o2
n8.91
v0
v4
v6
o2
o2
o2
n0.8
v0
v6
v10
o2
o2
o2
n1.93
v1
v1
v6
o2
o2
o2
n7.64
v1
v2
v3
o2
o2
o2
n0.21
v1
v3
v6
o2
o2
o2
n2.85
v1
v6
v10
o2
o2
o2
n0.35
v2
v5
v5
o2
o2
o2
n0.44
v3
v3
v4
o2
o2
o2
n7.59
v3
v3
v7
o2
o2
o2
n9.36
v3
v5
v5
o2
o2
o2
n0.59
v3
v7
v11
o2
o2
o2
n9.73
v4
v8
v8
o2
o2
o2
n9.67
v8
v8
v9
o2
o2
o2
o2
n9.38
v0
v0
v1
v6
o2
o2
o2
o2
n8.79
v0
v0
v1
v8
o2
o2
o2
o2
n3.73
v0
v0
v1
v11
o2
o2
o2
o2
n6.4
v0
v0
v2
v2
o2
o2
o2
o2
n6.62
v0
v0
v3
v7
o2
o2
o2
o2
n5.75
v0
v0
v4
v7
o2
o2
o2
o2
n5.04
v0
v0
v4
v8
o2
o2
o2
o2
n9.74
v0
v0
v8
v9
o2
o2
o2
o2
n5.48
v0
v1
v3
v8
o2
o2
o2
o2
n0.73
v0
v1
v9
v9
o2
o2
o2
o2
n4.77
v0
v2
v2
v3
o2
o2
o2
o2
n0.61
v0
v2
v4
v7
o2
o2
o2
o2
n3.23
v0
v3
v11
v11
o2
o2
o2
o2
n1.45
v0
v4
v4
v9
o2
o2
o2
o2
n2.86
v1
v1
v3
v6
o2
o2
o2
o2
n2
v1
v1
v3
v10
o2
o2
o2
o2
n8.5
v1
v1
v4
v4
o2
o2
o2
o2
n0.4
v1
v1
v6
v8
o2
o2
o2
o2
n4.69
v1
v2
v3
v9
o16
o2
o2
o2
o2
n8.41
v1
v2
v5
v6
o16
o2
o2
o2
o2
n6.02
v1
v3
v3
v6
o2
o2
o2
o2
n7.41
v1
v3
v3
v7
o2
o2
o2
o2
n3.94
v1
v3
v4
v6
o2
o2
o2
o2
n1.55
v1
v3
v5
v8
o2
o2
o2
o2
n7.6
v1
v3
v6
v10
o2
o2
o2
o2
n8.37
v1
v4
v6
v9
o2
o2
o2
o2
n1.72
v1
v6
v9
v11
o2
o2
o2
o2
n2.17
v2
v2
v3
v7
o2
o2
o2
o2
n9.3
v2
v2
v3
v10
o2
o2
o2
o2
n0.35
v2
v2
v11
v11
o2
o2
o2
o2
n1.84
v2
v4
v5
v11
o2
o2
o2
o2
n8.3
v2
v4
v11
v11
o2
o2
o2
o2
n5
v2
v6
v9
v9
o2
o2
o2
o2
n2.81
v2
v7
v8
v9
o16
o2
o2
o2
o2
n2.49
v2
v7
v10
v11
o2
o2
o2
o2
n9.63
v2
v8
v8
v10
o2
o2
o2
o2
n6.03
v2
v9
v10
v10
o2
o2
o2
o2
n5.2
v3
v3
v3
v7
o2
o2
o2
o2
n4.07
v3
v4
v4
v5
o2
o2
o2
o2
n8.18
v3
v4
v4
v9
o2
o2
o2
o2
n7.24
v3
v4
v4
v11
o2
o2
o2
o2
n0.73
v3
v4
v10
v11
o2
o2
o2
o2
n3.27
v3
v5
v6
v9
o2
o2
o2
o2
n5.21
v3
v5
v9
v10
o2
o2
o2
o2
n9.15
v3
v5
v9
v11
o2
o2
o2
o2
n6.38
v3
v6
v6
v11
o2
o2
o2
o2
n3.43
v3
v6
v9
v10
o2
o2
o2
o2
n4.41
v3
v7
v7
v7
o2
o2
o2
o2
n6.45
v3
v8
v8
v8
o16
o2
o2
o2
o2
n9.23
v3
v9
v11
v11
o2
o2
o2
o2
n1.18
v4
v4
v8
v10
o2
o2
o2
o2
n1.26
v4
v5
v7
v7
o2
o2
o2
o2
n2.75
v4
v5
v8
v8
o2
o2
o2
o2
n9
v4
v6
v6
v10
o2
o2
o2
o2
n9.22
v4
v6
v6
v11
o2
o2
o2
o2
n8.75
v4
v7
v9
v9
o2
o2
o2
o2
n1.53
v4
v7
v10
v11
o2
o2
o2
o2
n6.79
v4
v8
v11
v11
o2
o2
o2
o2
n5.48
v5
v6
v7
v8
o2
o2
o2
o2
n9.27
v5
v6
v7
v10
o16
o2
o2
o2
o2
n3.39
v5
v8
v8
v10
o2
o2
o2
o2
n0.18
v5
v8
v9
v9
o2
o2
o2
o2
n8.47
v5
v8
v9
v10
o2
o2
o2
o2
n2.75
v6
v6
v6
v10
o2
o2
o2
o2
n9.5
v6
v6
v7
v7
o2
o2
o2
o2
n4.46
v8
v8
v11
v11
o2
o2
o2
o2
n8.83
v9
v9
v10
v11
C3
o54
4
o16
o2
o2
n1.26
v0
v6
o2
o2
n2.91
v1
v2
o2
o2
n1.5
v2
v11
o2
o2
n2.45
v5
v9
C4
n0
C5
n0
C6
n0
C7
n0
C8
n0
O0 0
o54
90
o2
o2
n5.22
v0
v6
o2
o2
n4.96
v1
v2
o2
o2
n0.64
v2
v11
o2
o2
n3.66
v5
v9
o2
o2
o2
n9.57
v0
v0
v1
o2
o2
o2
n8.36
v0
v1
v2
o2
o2
o2
n3.05
v0
v1
v5
o2
o2
o2
n1.13
v0
v1
v8
o2
o2
o2
n4.59
v0
v1
v11
o16
o2
o2
o2
n5.88
v0
v3
v9
o2
o2
o2
n9.71
v0
v4
v6
o2
o2
o2
n6.45
v0
v6
v10
o2
o2
o2
n1.83
v1
v1
v6
o2
o2
o2
n2.65
v1
v2
v3
o16
o2
o2
o2
n8.77
v1
v3
v6
o16
o2
o2
o2
n0.63
v1
v6
v10
o2
o2
o2
n8.69
v2
v5
v5
o16
o2
o2
o2
n9.23
v3
v3
v4
o2
o2
o2
n9.69
v3
v3
v7
o2
o2
o2
n8.82
v3
v5
v5
o2
o2
o2
n2.11
v3
v7
v11
o2
o2
o2
n4.29
v4
v8
v8
o2
o2
o2
n7.48
v8
v8
v9
o2
o2
o2
o2
n8.59
v0
v0
v1
v6
o2
o2
o2
o2
n3.4
v0
v0
v1
v8
o2
o2
o2
o2
n8.56
v0
v0
v1
v11
o2
o2
o2
o2
n8.17
v0
v0
v2
v2
o2
o2
o2
o2
n9.5
v0
v0
v3
v7
o2
o2
o2
o2
n4.41
v0
v0
v4
v7
o2
o2
o2
o2
n0.04
v0
v0
v4
v8
o2
o2
o2
o2
n5.64
v0
v0
v8
v9
o2
o2
o2
o2
n3.95
v0
v1
v3
v8
o2
o2
o2
o2
n4.92
v0
v1
v9
v9
o16
o2
o2
o2
o2
n0.41
v0
v2
v2
v3
o2
o2
o2
o2
n9.59
v0
v2
v4
v7
o16
o2
o2
o2
o2
n9.24
v0
v3
v11
v11
o2
o2
o2
o2
n1.22
v0
v4
v4
v9
o2
o2
o2
o2
n2.77
v1
v1
v3
v6
o2
o2
o2
o2
n4.78
v1
v1
v3
v10
o2
o2
o2
o2
n0.86
v1
v1
v4
v4
o2
o2
o2
o2
n6.06
v1
v1
v6
v8
o2
o2
o2
o2
n0.55
v1
v2
v3
v9
o2
o2
o2
o2
n1.56
v1
v2
v5
v6
o16
o2
o2
o2
o2
n7.1
v1
v3
v3
v6
o2
o2
o2
o2
n9.72
v1
v3
v3
v7
o2
o2
o2
o2
n7.73
v1
v3
v4
v6
o2
o2
o2
o2
n7.64
v1
v3
v5
v8
o2
o2
o2
o2
n4.86
v1
v3
v6
v10
o2
o2
o2
o2
n2.44
v1
v4
v6
v9
o2
o2
o2
o2
n0.25
v1
v6
v9
v11
o2
o2
o2
o2
n1.08
v2
v2
v3
v7
o2
o2
o2
o2
n6.7
v2
v2
v3
v10
o2
o2
o2
o2
n8.03
v2
v2
v11
v11
o2
o2
o2
o2
n8.76
v2
v4
v5
v11
o16
o2
o2
o2
o2
n4.53
v2
v4
v11
v11
o2
o2
o2
o2
n9.19
v2
v6
v9
v9
o2
o2
o2
o2
n8.76
v2
v7
v8
v9
o2
o2
o2
o2
n2.52
v2
v7
v10
v11
o2
o2
o2
o2
n0.79
v2
v8
v8
v10
o2
o2
o2
o2
n2.45
v2
v9
v10
v10
o2
o2
o2
o2
n1.5
v3
v3
v3
v7
o16
o2
o2
o2
o2
n4.59
v3
v4
v4
v5
o2
o2
o2
o2
n9.51
v3
v4
v4
v9
o2
o2
o2
v3
v4
v4
v11
o2
o2
o2
o2
n5.08
v3
v4
v10
v11
o2
o2
o2
o2
n8.33
v3
v5
v6
v9
o2
o2
o2
o2
n5.23
v3
v5
v9
v10
o2
o2
o2
o2
n5.82
v3
v5
v9
v11
o16
o2
o2
o2
o2
n8.94
v3
v6
v6
v11
o2
o2
o2
o2
n5.03
v3
v6
v9
v10
o2
o2
o2
o2
n6.64
v3
v7
v7
v7
o2
o2
o2
o2
n7.64
v3
v8
v8
v8
o16
o2
o2
o2
o2
n3.01
v3
v9
v11
v11
o2
o2
o2
o2
n2.91
v4
v4
v8
v10
o2
o2
o2
o2
n7.08
v4
v5
v7
v7
o2
o2
o2
o2
n1.56
v4
v5
v8
v8
o2
o2
o2
o2
n8.85
v4
v6
v6
v10
o2
o2
o2
o2
n7.28
v4
v6
v6
v11
o2
o2
o2
o2
n6.29
v4
v7
v9
v9
o16
o2
o2
o2
o2
n2.84
v4
v7
v10
v11
o2
o2
o2
o2
n2.01
v4
v8
v11
v11
o2
o2
o2
o2
n2
v5
v6
v7
v8
o2
o2
o2
o2
n3.42
v5
v6
v7
v10
o2
o2
o2
o2
n3.99
v5
v8
v8
v10
o2
o2
o2
o2
n5.69
v5
v8
v9
v9
o2
o2
o2
o2
n2.15
v5
v8
v9
v10
o2
o2
o2
o2
n1.31
v6
v6
v6
v10
o2
o2
o2
o2
n3.07
v6
v6
v7
v7
o2
o2
o2
o2
n5.61
v8
v8
v11
v11
o2
o2
o2
o2
n8.03
v9
v9
v10
v11
k11
8
14
22
30
37
45
53
60
68
74
83
J0 12
0 2.5
1 6.67
2 2.78
3 8.34
4 9.67
5 2.58
6 3.46
7 9.08
8 5.18
9 0.48
10 9.75
11 3.64
J1 12
0 1.51
1 1.58
2 1.88
3 0.57
4 2.74
5 2.97
6 -2.23
7 0.43
8 0.08
9 5.32
10 0.36
11 7.9
J2 12
0 4.47
1 4.31
2 6.4
3 8.26
4 2.84
5 6.58
6 7.84
7 0.57
8 9.21
9 6.07
10 6.93
11 0.72
J3 12
0 2.27
1 9.85
2 4.84
3 7.59
4 3.57
5 -5.99
6 1.89
7 0.04
8 1.06
9 7.81
10 3.91
11 6.44
J4 6
0 8.99
3 6.14
4 3.66
6 3.63
7 -7.35
10 2.88
J5 6
2 7.31
3 5.94
5 7.01
6 8.52
8 3.97
10 5.16
J6 6
0 9.45
2 3.99
5 8.89
8 2.46
10 1.27
11 1.88
J7 12
0 -7.2
1 8.91
2 6.9
3 1.99
4 8.28
5 5.24
6 3.48
7 -9.14
8 -6.94
9 6.22
10 4.6
11 -6.28
J8 12
0 1.12
1 1.33
2 0.23
3 7.23
4 8.97
5 6.64
6 7.14
7 8.48
8 0.4
9 1.73
10 3.96
11 1.82
G0 12
0 7.82
1 7.84
2 2.23
3 -0.06
4 8.78
5 9.66
6 5.57
7 -7.56
8 3.52
9 4.52
10 2.6
11 0.06
